c This is a CNF SAT formula in the DIMACS CNF format,
c produced with the bc2cnf translator by Tommi Junttila;
c see http://users.ics.aalto.fi/tjunttil/circuits/index.html
c O <-> 1
c S15KSA <-> 2
c S15F <-> 3
c S14F <-> 4
c S13F <-> 5
c S12F <-> 6
c S11F <-> 7
c S10F <-> 8
c S9F <-> 9
c S8F <-> 10
c C15F <-> 11
c C14F <-> 13
c C13F <-> 15
c C12F <-> 17
c C11F <-> 19
c C10F <-> 21
c C9F <-> 23
c S15T <-> 26
c S14T <-> 27
c S13T <-> 28
c S12T <-> 29
c S11T <-> 30
c S10T <-> 31
c S9T <-> 32
c S8T <-> 33
c C15T <-> 34
c C14T <-> 37
c C13T <-> 40
c C12T <-> 43
c C11T <-> 46
c C10T <-> 49
c C9T <-> 52
c C8KSA <-> 56
c C7 <-> 59
c C6 <-> 62
c C5 <-> 65
c C4 <-> 68
c C3 <-> 71
c C2 <-> 74
c C1 <-> 77
c S15RCA <-> 80
c B15 <-> 82
c A15 <-> 83
c C15RCA <-> 84
c S14RCA <-> 88
c B14 <-> 89
c A14 <-> 90
c C14RCA <-> 91
c S13RCA <-> 95
c B13 <-> 96
c A13 <-> 97
c C13RCA <-> 98
c S12RCA <-> 102
c B12 <-> 103
c A12 <-> 104
c C12RCA <-> 105
c S11RCA <-> 109
c B11 <-> 110
c A11 <-> 111
c C11RCA <-> 112
c S10RCA <-> 116
c B10 <-> 117
c A10 <-> 118
c C10RCA <-> 119
c S9RCA <-> 123
c B9 <-> 124
c A9 <-> 125
c C9RCA <-> 126
c S8RCA <-> 130
c B8 <-> 131
c A8 <-> 132
c C8RCA <-> 133
c S7RCA <-> 137
c B7 <-> 138
c A7 <-> 139
c C7RCA <-> 140
c S6RCA <-> 144
c B6 <-> 145
c A6 <-> 146
c C6RCA <-> 147
c S5RCA <-> 151
c B5 <-> 152
c A5 <-> 153
c C5RCA <-> 154
c S4RCA <-> 158
c B4 <-> 159
c A4 <-> 160
c C4RCA <-> 161
c S3RCA <-> 165
c B3 <-> 166
c A3 <-> 167
c C3RCA <-> 168
c S2RCA <-> 172
c B2 <-> 173
c A2 <-> 174
c C2RCA <-> 175
c S1RCA <-> 179
c B1 <-> 180
c A1 <-> 181
c C1RCA <-> 182
c S0RCA <-> 186
c Cin <-> 187
c B0 <-> 188
c A0 <-> 189
p cnf 189 530
1 80 -2 0
1 -80 2 0
-1 80 2 0
-1 -80 -2 0
1 0
2 56 -3 0
2 -56 -26 0
-2 56 3 0
-2 -56 26 0
3 81 -11 0
3 -81 11 0
-3 81 11 0
-3 -81 -11 0
4 36 -13 0
4 -36 13 0
-4 36 13 0
-4 -36 -13 0
5 39 -15 0
5 -39 15 0
-5 39 15 0
-5 -39 -15 0
6 42 -17 0
6 -42 17 0
-6 42 17 0
-6 -42 -17 0
7 45 -19 0
7 -45 19 0
-7 45 19 0
-7 -45 -19 0
8 48 -21 0
8 -48 21 0
-8 48 21 0
-8 -48 -21 0
9 51 -23 0
9 -51 23 0
-9 51 23 0
-9 -51 -23 0
10 55 -25 0
10 -55 25 0
-10 55 25 0
-10 -55 -25 0
11 -12 0
11 -85 0
-11 85 12 0
-12 13 0
-12 36 0
12 -36 -13 0
13 -14 0
13 -92 0
-13 92 14 0
-14 15 0
-14 39 0
14 -39 -15 0
15 -16 0
15 -99 0
-15 99 16 0
-16 17 0
-16 42 0
16 -42 -17 0
17 -18 0
17 -106 0
-17 106 18 0
-18 19 0
-18 45 0
18 -45 -19 0
19 -20 0
19 -113 0
-19 113 20 0
-20 21 0
-20 48 0
20 -48 -21 0
21 -22 0
21 -120 0
-21 120 22 0
-22 23 0
-22 51 0
22 -51 -23 0
23 -24 0
23 -127 0
-23 127 24 0
-24 25 0
-24 55 0
24 -55 -25 0
-25 0
26 81 -34 0
26 -81 34 0
-26 81 34 0
-26 -81 -34 0
27 37 -36 0
27 -37 36 0
-27 37 36 0
-27 -37 -36 0
28 40 -39 0
28 -40 39 0
-28 40 39 0
-28 -40 -39 0
29 43 -42 0
29 -43 42 0
-29 43 42 0
-29 -43 -42 0
30 46 -45 0
30 -46 45 0
-30 46 45 0
-30 -46 -45 0
31 49 -48 0
31 -49 48 0
-31 49 48 0
-31 -49 -48 0
32 52 -51 0
32 -52 51 0
-32 52 51 0
-32 -52 -51 0
33 55 -54 0
33 -55 54 0
-33 55 54 0
-33 -55 -54 0
34 -35 0
34 -85 0
-34 85 35 0
-35 36 0
-35 37 0
35 -37 -36 0
36 90 -89 0
36 -90 89 0
-36 90 89 0
-36 -90 -89 0
37 -38 0
37 -92 0
-37 92 38 0
-38 39 0
-38 40 0
38 -40 -39 0
39 97 -96 0
39 -97 96 0
-39 97 96 0
-39 -97 -96 0
40 -41 0
40 -99 0
-40 99 41 0
-41 42 0
-41 43 0
41 -43 -42 0
42 104 -103 0
42 -104 103 0
-42 104 103 0
-42 -104 -103 0
43 -44 0
43 -106 0
-43 106 44 0
-44 45 0
-44 46 0
44 -46 -45 0
45 111 -110 0
45 -111 110 0
-45 111 110 0
-45 -111 -110 0
46 -47 0
46 -113 0
-46 113 47 0
-47 48 0
-47 49 0
47 -49 -48 0
48 118 -117 0
48 -118 117 0
-48 118 117 0
-48 -118 -117 0
49 -50 0
49 -120 0
-49 120 50 0
-50 51 0
-50 52 0
50 -52 -51 0
51 125 -124 0
51 -125 124 0
-51 125 124 0
-51 -125 -124 0
52 -53 0
52 -127 0
-52 127 53 0
-53 54 0
-53 55 0
53 -55 -54 0
54 0
55 132 -131 0
55 -132 131 0
-55 132 131 0
-55 -132 -131 0
56 -57 0
56 -134 0
-56 134 57 0
-57 58 0
-57 59 0
57 -59 -58 0
58 139 -138 0
58 -139 138 0
-58 139 138 0
-58 -139 -138 0
59 -60 0
59 -141 0
-59 141 60 0
-60 61 0
-60 62 0
60 -62 -61 0
61 146 -145 0
61 -146 145 0
-61 146 145 0
-61 -146 -145 0
62 -63 0
62 -148 0
-62 148 63 0
-63 64 0
-63 65 0
63 -65 -64 0
64 153 -152 0
64 -153 152 0
-64 153 152 0
-64 -153 -152 0
65 -66 0
65 -155 0
-65 155 66 0
-66 67 0
-66 68 0
66 -68 -67 0
67 160 -159 0
67 -160 159 0
-67 160 159 0
-67 -160 -159 0
68 -69 0
68 -162 0
-68 162 69 0
-69 70 0
-69 71 0
69 -71 -70 0
70 167 -166 0
70 -167 166 0
-70 167 166 0
-70 -167 -166 0
71 -72 0
71 -169 0
-71 169 72 0
-72 73 0
-72 74 0
72 -74 -73 0
73 174 -173 0
73 -174 173 0
-73 174 173 0
-73 -174 -173 0
74 -75 0
74 -176 0
-74 176 75 0
-75 76 0
-75 77 0
75 -77 -76 0
76 181 -180 0
76 -181 180 0
-76 181 180 0
-76 -181 -180 0
77 -78 0
77 -183 0
-77 183 78 0
-78 79 0
-78 187 0
78 -187 -79 0
79 189 -188 0
79 -189 188 0
-79 189 188 0
-79 -189 -188 0
80 84 -81 0
80 -84 81 0
-80 84 81 0
-80 -84 -81 0
81 83 -82 0
81 -83 82 0
-81 83 82 0
-81 -83 -82 0
84 -85 0
84 -86 0
84 -87 0
-84 87 86 85 0
-85 89 0
-85 90 0
85 -90 -89 0
-86 90 0
-86 91 0
86 -91 -90 0
-87 89 0
-87 91 0
87 -91 -89 0
88 91 -36 0
88 -91 36 0
-88 91 36 0
-88 -91 -36 0
91 -92 0
91 -93 0
91 -94 0
-91 94 93 92 0
-92 96 0
-92 97 0
92 -97 -96 0
-93 97 0
-93 98 0
93 -98 -97 0
-94 96 0
-94 98 0
94 -98 -96 0
95 98 -39 0
95 -98 39 0
-95 98 39 0
-95 -98 -39 0
98 -99 0
98 -100 0
98 -101 0
-98 101 100 99 0
-99 103 0
-99 104 0
99 -104 -103 0
-100 104 0
-100 105 0
100 -105 -104 0
-101 103 0
-101 105 0
101 -105 -103 0
102 105 -42 0
102 -105 42 0
-102 105 42 0
-102 -105 -42 0
105 -106 0
105 -107 0
105 -108 0
-105 108 107 106 0
-106 110 0
-106 111 0
106 -111 -110 0
-107 111 0
-107 112 0
107 -112 -111 0
-108 110 0
-108 112 0
108 -112 -110 0
109 112 -45 0
109 -112 45 0
-109 112 45 0
-109 -112 -45 0
112 -113 0
112 -114 0
112 -115 0
-112 115 114 113 0
-113 117 0
-113 118 0
113 -118 -117 0
-114 118 0
-114 119 0
114 -119 -118 0
-115 117 0
-115 119 0
115 -119 -117 0
116 119 -48 0
116 -119 48 0
-116 119 48 0
-116 -119 -48 0
119 -120 0
119 -121 0
119 -122 0
-119 122 121 120 0
-120 124 0
-120 125 0
120 -125 -124 0
-121 125 0
-121 126 0
121 -126 -125 0
-122 124 0
-122 126 0
122 -126 -124 0
123 126 -51 0
123 -126 51 0
-123 126 51 0
-123 -126 -51 0
126 -127 0
126 -128 0
126 -129 0
-126 129 128 127 0
-127 131 0
-127 132 0
127 -132 -131 0
-128 132 0
-128 133 0
128 -133 -132 0
-129 131 0
-129 133 0
129 -133 -131 0
130 133 -55 0
130 -133 55 0
-130 133 55 0
-130 -133 -55 0
133 -134 0
133 -135 0
133 -136 0
-133 136 135 134 0
-134 138 0
-134 139 0
134 -139 -138 0
-135 139 0
-135 140 0
135 -140 -139 0
-136 138 0
-136 140 0
136 -140 -138 0
137 140 -58 0
137 -140 58 0
-137 140 58 0
-137 -140 -58 0
140 -141 0
140 -142 0
140 -143 0
-140 143 142 141 0
-141 145 0
-141 146 0
141 -146 -145 0
-142 146 0
-142 147 0
142 -147 -146 0
-143 145 0
-143 147 0
143 -147 -145 0
144 147 -61 0
144 -147 61 0
-144 147 61 0
-144 -147 -61 0
147 -148 0
147 -149 0
147 -150 0
-147 150 149 148 0
-148 152 0
-148 153 0
148 -153 -152 0
-149 153 0
-149 154 0
149 -154 -153 0
-150 152 0
-150 154 0
150 -154 -152 0
151 154 -64 0
151 -154 64 0
-151 154 64 0
-151 -154 -64 0
154 -155 0
154 -156 0
154 -157 0
-154 157 156 155 0
-155 159 0
-155 160 0
155 -160 -159 0
-156 160 0
-156 161 0
156 -161 -160 0
-157 159 0
-157 161 0
157 -161 -159 0
158 161 -67 0
158 -161 67 0
-158 161 67 0
-158 -161 -67 0
161 -162 0
161 -163 0
161 -164 0
-161 164 163 162 0
-162 166 0
-162 167 0
162 -167 -166 0
-163 167 0
-163 168 0
163 -168 -167 0
-164 166 0
-164 168 0
164 -168 -166 0
165 168 -70 0
165 -168 70 0
-165 168 70 0
-165 -168 -70 0
168 -169 0
168 -170 0
168 -171 0
-168 171 170 169 0
-169 173 0
-169 174 0
169 -174 -173 0
-170 174 0
-170 175 0
170 -175 -174 0
-171 173 0
-171 175 0
171 -175 -173 0
172 175 -73 0
172 -175 73 0
-172 175 73 0
-172 -175 -73 0
175 -176 0
175 -177 0
175 -178 0
-175 178 177 176 0
-176 180 0
-176 181 0
176 -181 -180 0
-177 181 0
-177 182 0
177 -182 -181 0
-178 180 0
-178 182 0
178 -182 -180 0
179 182 -76 0
179 -182 76 0
-179 182 76 0
-179 -182 -76 0
182 -183 0
182 -184 0
182 -185 0
-182 185 184 183 0
-183 188 0
-183 189 0
183 -189 -188 0
-184 187 0
-184 189 0
184 -189 -187 0
-185 187 0
-185 188 0
185 -188 -187 0
186 187 -79 0
186 -187 79 0
-186 187 79 0
-186 -187 -79 0